(set-option :produce-models true)
(set-logic QF_UF)
(declare-fun p0() Bool)
(declare-fun p11() Bool)
(declare-fun p2() Bool)
(declare-fun p8() Bool)
(declare-fun p4() Bool)
(declare-fun p21() Bool)
(declare-fun p24() Bool)
(declare-fun p17() Bool)
(declare-fun p20() Bool)
(declare-fun p19() Bool)
(declare-fun p15() Bool)
(declare-fun p10() Bool)
(declare-fun p28() Bool)
(declare-fun p27() Bool)
(declare-fun p23() Bool)
(declare-fun p13() Bool)
(declare-fun p7() Bool)
(declare-fun p26() Bool)
(declare-fun p6() Bool)
(declare-fun p25() Bool)
(declare-fun p5() Bool)
(declare-fun p3() Bool)
(declare-fun p12() Bool)
(declare-fun p9() Bool)
(declare-fun p16() Bool)
(declare-fun p1() Bool)
(declare-fun p18() Bool)
(declare-fun p29() Bool)
(declare-fun p22() Bool)
(declare-fun p14() Bool)
(assert
(and (or (not p0) (not p11) (not p2)) (or p8 (not p4) p21) (or p24 p17 (not p20)) (or p19 (not p15) (not p10)) (or (not p28) p20 p15) (or p27 (not p11) (not p21)) (or p23 (not p11) p23) (or (not p13) p7 p15) (or (not p17) p0 p26) (or p4 p6 (not p25)) (or (not p25) p5 (not p19)) (or p7 (not p13) (not p3)) (or p13 (not p12) p11) (or (not p24) (not p28) p24) (or p23 p9 p8) (or (not p9) (not p16) (not p21)) (or (not p16) (not p7) (not p6)) (or p13 (not p26) (not p21)) (or (not p23) p8 (not p25)) (or (not p16) (not p13) p21) (or p13 (not p12) (not p4)) (or (not p0) (not p16) p2) (or (not p25) (not p19) (not p23)) (or p6 (not p1) (not p18)) (or p16 p6 p25) (or p5 p9 p20) (or (not p20) p8 (not p18)) (or p29 p15 p6) (or (not p19) (not p4) p2) (or (not p22) p11 p26) (or (not p28) p23 p20) (or (not p8) p27 (not p27)) (or p12 p21 (not p28)) (or p29 (not p22) p23) (or (not p10) (not p2) p9) (or (not p24) p26 p21) (or p29 p6 p10) (or (not p6) p1 (not p4)) (or (not p21) p10 (not p14)) (or p19 (not p6) (not p28)) (or p0 p9 p17) (or (not p12) p22 (not p8)) (or p20 (not p27) p14) (or p1 p16 p22) (or (not p19) (not p5) p26) (or p12 p10 (not p0)) (or p0 (not p23) (not p14)) (or p14 p13 (not p23)) (or (not p10) p13 (not p17)) (or (not p9) (not p20) (not p26)) (or (not p27) (not p3) p10) (or (not p18) p25 (not p21)) (or p18 (not p15) p9) (or (not p3) p14 (not p10)) (or p8 (not p6) (not p24)) (or (not p3) p5 p18) (or (not p5) p14 p22) (or (not p9) (not p28) (not p6)) (or (not p2) p15 p17) (or (not p12) p18 (not p15)) (or p27 p13 (not p24)) (or (not p23) (not p5) (not p28)) (or (not p8) (not p7) p28) (or (not p27) (not p18) p5) (or (not p16) p23 (not p25)) (or p10 p7 (not p3)) (or p17 p8 (not p25)) (or p22 (not p5) p2) (or (not p25) (not p9) (not p15)) (or p16 (not p5) (not p15)) (or (not p23) p24 p4) (or (not p20) p6 (not p18)) (or p16 (not p8) p18) (or p4 p18 (not p27)) (or (not p4) (not p0) p18) (or (not p7) (not p14) p24) (or (not p4) (not p25) (not p3)) (or (not p21) p4 (not p28)) (or (not p18) (not p11) (not p20)) (or p17 p25 p28) (or (not p14) p1 (not p3)) (or (not p14) p14 p22) (or (not p6) (not p21) p18) (or (not p26) p12 p21) (or p5 (not p21) (not p7)) (or (not p19) (not p16) p1) (or p18 p11 p22) (or (not p13) p29 p14) (or p26 (not p25) p13) (or (not p16) (not p17) (not p0)) (or (not p2) (not p1) (not p22)) (or p24 p3 (not p13)) (or p16 (not p13) p26) (or p12 (not p9) p5) (or p20 p16 (not p13)) (or p8 p4 (not p15)) (or p14 p22 p19) (or p10 p23 (not p25)) (or p10 (not p17) (not p15)) (or p25 (not p4) (not p22)) (or p18 p27 (not p9)) (or p26 p21 (not p16)) (or (not p20) (not p23) (not p17)) (or (not p7) (not p9) p11) (or p15 (not p15) (not p18)) (or (not p10) (not p0) p26) (or (not p28) p14 p0) (or (not p1) p6 (not p20)) (or p22 (not p2) (not p25)) (or (not p22) (not p17) p25) (or (not p22) (not p16) (not p26)) (or (not p10) (not p7) p16) (or (not p5) (not p20) (not p18)) (or p10 (not p20) (not p16)) (or p13 (not p1) (not p20)) (or p13 p3 (not p26)) (or p20 (not p0) (not p4)) (or (not p22) p0 (not p15)) (or (not p15) (not p13) (not p11)) (or p23 (not p15) p15) (or (not p25) p25 p28) (or (not p25) p4 p25) (or (not p8) p11 p4) (or p8 p25 p1) (or (not p0) p22 (not p25)) (or (not p7) (not p26) (not p23)) (or (not p3) p6 p3) (or (not p1) p15 p2))
)
(check-sat)
(get-model)
